(set-info :smt-lib-version 2.6)
(set-info :category "crafted")
(set-logic QF_FF)
(define-sort FF0 () (_ FiniteField 52435875175126190479447740508185965837690552500527637822603658699938581184513))
(declare-fun x17 () Bool)
(declare-fun x16 () Bool)
(declare-fun x15 () Bool)
(declare-fun x14 () Bool)
(declare-fun x13 () Bool)
(declare-fun x12 () Bool)
(declare-fun x11 () Bool)
(declare-fun x10 () Bool)
(declare-fun x9 () Bool)
(declare-fun x8 () Bool)
(declare-fun x7 () Bool)
(declare-fun x6 () Bool)
(declare-fun x5 () Bool)
(declare-fun x4 () Bool)
(declare-fun x3 () Bool)
(declare-fun x2 () Bool)
(declare-fun x1 () Bool)
(declare-fun x0 () Bool)
(declare-fun out () FF0)
(declare-fun _34 () FF0)
(declare-fun _9 () FF0)
(declare-fun _33 () FF0)
(declare-fun _8 () FF0)
(declare-fun _32 () FF0)
(declare-fun _7 () FF0)
(declare-fun _31 () FF0)
(declare-fun _6 () FF0)
(declare-fun _30 () FF0)
(declare-fun _5 () FF0)
(declare-fun _29 () FF0)
(declare-fun _4 () FF0)
(declare-fun _28 () FF0)
(declare-fun _3 () FF0)
(declare-fun _27 () FF0)
(declare-fun _2 () FF0)
(declare-fun _26 () FF0)
(declare-fun _17 () FF0)
(declare-fun _25 () FF0)
(declare-fun _16 () FF0)
(declare-fun _24 () FF0)
(declare-fun _15 () FF0)
(declare-fun _23 () FF0)
(declare-fun _14 () FF0)
(declare-fun _22 () FF0)
(declare-fun _13 () FF0)
(declare-fun _21 () FF0)
(declare-fun _12 () FF0)
(declare-fun _20 () FF0)
(declare-fun _11 () FF0)
(declare-fun _19 () FF0)
(declare-fun _10 () FF0)
(declare-fun _18 () FF0)
(declare-fun _1 () FF0)
(declare-fun _0 () FF0)
(assert 
  (let ((let0 x17))
  (let ((let1 x16))
  (let ((let2 x15))
  (let ((let3 x14))
  (let ((let4 x13))
  (let ((let5 x12))
  (let ((let6 x11))
  (let ((let7 x10))
  (let ((let8 x9))
  (let ((let9 x8))
  (let ((let10 x7))
  (let ((let11 x6))
  (let ((let12 x5))
  (let ((let13 x4))
  (let ((let14 x3))
  (let ((let15 x2))
  (let ((let16 x1))
  (let ((let17 x0))
  (let ((let18 (and let17 let16 let15 let14 let13 let12 let11 let10 let9 let8 let7 let6 let5 let4 let3 let2 let1 let0)))
  (let ((let19 out))
  (let ((let20 (as ff1 FF0)))
  (let ((let21 (= let20 let19)))
  (let ((let22 (= let21 let18)))
  (let ((let23 (as ff0 FF0)))
  (let ((let24 (= let23 let19)))
  (let ((let25 (or let21 let24)))
  (let ((let26 (and let25 let22)))
  (let ((let27 _34))
  (let ((let28 (= let27 let19)))
  (let ((let29 _9))
  (let ((let30 _33))
  (let ((let31 (ff.mul let30 let29)))
  (let ((let32 (= let31 let27)))
  (let ((let33 _8))
  (let ((let34 _32))
  (let ((let35 (ff.mul let34 let33)))
  (let ((let36 (= let35 let30)))
  (let ((let37 _7))
  (let ((let38 _31))
  (let ((let39 (ff.mul let38 let37)))
  (let ((let40 (= let39 let34)))
  (let ((let41 _6))
  (let ((let42 _30))
  (let ((let43 (ff.mul let42 let41)))
  (let ((let44 (= let43 let38)))
  (let ((let45 _5))
  (let ((let46 _29))
  (let ((let47 (ff.mul let46 let45)))
  (let ((let48 (= let47 let42)))
  (let ((let49 _4))
  (let ((let50 _28))
  (let ((let51 (ff.mul let50 let49)))
  (let ((let52 (= let51 let46)))
  (let ((let53 _3))
  (let ((let54 _27))
  (let ((let55 (ff.mul let54 let53)))
  (let ((let56 (= let55 let50)))
  (let ((let57 _2))
  (let ((let58 _26))
  (let ((let59 (ff.mul let58 let57)))
  (let ((let60 (= let59 let54)))
  (let ((let61 _17))
  (let ((let62 _25))
  (let ((let63 (ff.mul let62 let61)))
  (let ((let64 (= let63 let58)))
  (let ((let65 _16))
  (let ((let66 _24))
  (let ((let67 (ff.mul let66 let65)))
  (let ((let68 (= let67 let62)))
  (let ((let69 _15))
  (let ((let70 _23))
  (let ((let71 (ff.mul let70 let69)))
  (let ((let72 (= let71 let66)))
  (let ((let73 _14))
  (let ((let74 _22))
  (let ((let75 (ff.mul let74 let73)))
  (let ((let76 (= let75 let70)))
  (let ((let77 _13))
  (let ((let78 _21))
  (let ((let79 (ff.mul let78 let77)))
  (let ((let80 (= let79 let74)))
  (let ((let81 _12))
  (let ((let82 _20))
  (let ((let83 (ff.mul let82 let81)))
  (let ((let84 (= let83 let78)))
  (let ((let85 _11))
  (let ((let86 _19))
  (let ((let87 (ff.mul let86 let85)))
  (let ((let88 (= let87 let82)))
  (let ((let89 _10))
  (let ((let90 _18))
  (let ((let91 (ff.mul let90 let89)))
  (let ((let92 (= let91 let86)))
  (let ((let93 _1))
  (let ((let94 _0))
  (let ((let95 (ff.mul let94 let93)))
  (let ((let96 (= let95 let90)))
  (let ((let97 (ff.mul let65 let65)))
  (let ((let98 (= let97 let65)))
  (let ((let99 (ff.mul let69 let69)))
  (let ((let100 (= let99 let69)))
  (let ((let101 (ff.mul let73 let73)))
  (let ((let102 (= let101 let73)))
  (let ((let103 (ff.mul let77 let77)))
  (let ((let104 (= let103 let77)))
  (let ((let105 (ff.mul let81 let81)))
  (let ((let106 (= let105 let81)))
  (let ((let107 (ff.mul let85 let85)))
  (let ((let108 (= let107 let85)))
  (let ((let109 (ff.mul let89 let89)))
  (let ((let110 (= let109 let89)))
  (let ((let111 (ff.mul let29 let29)))
  (let ((let112 (= let111 let29)))
  (let ((let113 (ff.mul let33 let33)))
  (let ((let114 (= let113 let33)))
  (let ((let115 (ff.mul let37 let37)))
  (let ((let116 (= let115 let37)))
  (let ((let117 (ff.mul let41 let41)))
  (let ((let118 (= let117 let41)))
  (let ((let119 (ff.mul let45 let45)))
  (let ((let120 (= let119 let45)))
  (let ((let121 (ff.mul let49 let49)))
  (let ((let122 (= let121 let49)))
  (let ((let123 (ff.mul let53 let53)))
  (let ((let124 (= let123 let53)))
  (let ((let125 (ff.mul let57 let57)))
  (let ((let126 (= let125 let57)))
  (let ((let127 (ff.mul let93 let93)))
  (let ((let128 (= let127 let93)))
  (let ((let129 (ff.mul let94 let94)))
  (let ((let130 (= let129 let94)))
  (let ((let131 (and let130 let128 let126 let124 let122 let120 let118 let116 let114 let112 let110 let108 let106 let104 let102 let100 let98 let96 let92 let88 let84 let80 let76 let72 let68 let64 let60 let56 let52 let48 let44 let40 let36 let32 let28)))
  (let ((let132 (ite let14 let20 let23)))
  (let ((let133 (= let85 let132)))
  (let ((let134 (ite let12 let20 let23)))
  (let ((let135 (= let77 let134)))
  (let ((let136 (ite let10 let20 let23)))
  (let ((let137 (= let69 let136)))
  (let ((let138 (ite let11 let20 let23)))
  (let ((let139 (= let73 let138)))
  (let ((let140 (ite let0 let20 let23)))
  (let ((let141 (= let29 let140)))
  (let ((let142 (ite let1 let20 let23)))
  (let ((let143 (= let33 let142)))
  (let ((let144 (ite let7 let20 let23)))
  (let ((let145 (= let57 let144)))
  (let ((let146 (ite let3 let20 let23)))
  (let ((let147 (= let41 let146)))
  (let ((let148 (ite let17 let20 let23)))
  (let ((let149 (= let94 let148)))
  (let ((let150 (ite let8 let20 let23)))
  (let ((let151 (= let61 let150)))
  (let ((let152 (ite let15 let20 let23)))
  (let ((let153 (= let89 let152)))
  (let ((let154 (ite let4 let20 let23)))
  (let ((let155 (= let45 let154)))
  (let ((let156 (ite let5 let20 let23)))
  (let ((let157 (= let49 let156)))
  (let ((let158 (ite let9 let20 let23)))
  (let ((let159 (= let65 let158)))
  (let ((let160 (ite let13 let20 let23)))
  (let ((let161 (= let81 let160)))
  (let ((let162 (ite let2 let20 let23)))
  (let ((let163 (= let37 let162)))
  (let ((let164 (ite let6 let20 let23)))
  (let ((let165 (= let53 let164)))
  (let ((let166 (ite let16 let20 let23)))
  (let ((let167 (= let93 let166)))
  (let ((let168 (and let167 let165 let163 let161 let159 let157 let155 let153 let151 let149 let147 let145 let143 let141 let139 let137 let135 let133)))
  (let ((let169 (and let168 let131)))
  (let ((let170 (=> let169 let26)))
  (let ((let171 (not let170)))
  let171
))))))))))))))))))))))))))))))))))))))))))))))))))))))))))))))))))))))))))))))))))))))))))))))))))))))))))))))))))))))))))))))))))))))))))))))))))))))))))))))))))))))))))))
)
(check-sat)
